\Problem name: 

Minimize
OBJROW: C
Subject To
ord(0,1):  x(0,0) - x(0,2) >= 1
ord(0,2):  - x(0,0) + x(0,1) >= 3
ord(0,3):  - x(0,1) + x(0,3) >= 6
ord(0,4):  - x(0,3) + x(0,5) >= 7
ord(0,5):  x(0,4) - x(0,5) >= 3
ord(1,1):  - x(1,1) + x(1,2) >= 8
ord(1,2):  - x(1,2) + x(1,4) >= 5
ord(1,3):  - x(1,4) + x(1,5) >= 10
ord(1,4):  x(1,0) - x(1,5) >= 10
ord(1,5):  - x(1,0) + x(1,3) >= 10
ord(2,1):  - x(2,2) + x(2,3) >= 5
ord(2,2):  - x(2,3) + x(2,5) >= 4
ord(2,3):  x(2,0) - x(2,5) >= 8
ord(2,4):  - x(2,0) + x(2,1) >= 9
ord(2,5):  - x(2,1) + x(2,4) >= 1
ord(3,1):  x(3,0) - x(3,1) >= 5
ord(3,2):  - x(3,0) + x(3,2) >= 5
ord(3,3):  - x(3,2) + x(3,3) >= 5
ord(3,4):  - x(3,3) + x(3,4) >= 3
ord(3,5):  - x(3,4) + x(3,5) >= 8
ord(4,1):  x(4,1) - x(4,2) >= 9
ord(4,2):  - x(4,1) + x(4,4) >= 3
ord(4,3):  - x(4,4) + x(4,5) >= 5
ord(4,4):  x(4,0) - x(4,5) >= 4
ord(4,5):  - x(4,0) + x(4,3) >= 3
ord(5,1):  - x(5,1) + x(5,3) >= 3
ord(5,2):  - x(5,3) + x(5,5) >= 3
ord(5,3):  x(5,0) - x(5,5) >= 9
ord(5,4):  - x(5,0) + x(5,4) >= 10
ord(5,5):  x(5,2) - x(5,4) >= 4
phi(0,1,0):  x(0,0) - x(1,0) + 197 y(0,1,0) >= 10
psy(0,1,0):  - x(0,0) + x(1,0) -197 y(0,1,0) >= -194
phi(0,1,1):  x(0,1) - x(1,1) + 197 y(0,1,1) >= 8
psy(0,1,1):  - x(0,1) + x(1,1) -197 y(0,1,1) >= -191
phi(0,1,2):  x(0,2) - x(1,2) + 197 y(0,1,2) >= 5
psy(0,1,2):  - x(0,2) + x(1,2) -197 y(0,1,2) >= -196
phi(0,1,3):  x(0,3) - x(1,3) + 197 y(0,1,3) >= 4
psy(0,1,3):  - x(0,3) + x(1,3) -197 y(0,1,3) >= -190
phi(0,1,4):  x(0,4) - x(1,4) + 197 y(0,1,4) >= 10
psy(0,1,4):  - x(0,4) + x(1,4) -197 y(0,1,4) >= -191
phi(0,1,5):  x(0,5) - x(1,5) + 197 y(0,1,5) >= 10
psy(0,1,5):  - x(0,5) + x(1,5) -197 y(0,1,5) >= -194
phi(0,2,0):  x(0,0) - x(2,0) + 197 y(0,2,0) >= 9
psy(0,2,0):  - x(0,0) + x(2,0) -197 y(0,2,0) >= -194
phi(0,2,1):  x(0,1) - x(2,1) + 197 y(0,2,1) >= 1
psy(0,2,1):  - x(0,1) + x(2,1) -197 y(0,2,1) >= -191
phi(0,2,2):  x(0,2) - x(2,2) + 197 y(0,2,2) >= 5
psy(0,2,2):  - x(0,2) + x(2,2) -197 y(0,2,2) >= -196
phi(0,2,3):  x(0,3) - x(2,3) + 197 y(0,2,3) >= 4
psy(0,2,3):  - x(0,3) + x(2,3) -197 y(0,2,3) >= -190
phi(0,2,4):  x(0,4) - x(2,4) + 197 y(0,2,4) >= 7
psy(0,2,4):  - x(0,4) + x(2,4) -197 y(0,2,4) >= -191
phi(0,2,5):  x(0,5) - x(2,5) + 197 y(0,2,5) >= 8
psy(0,2,5):  - x(0,5) + x(2,5) -197 y(0,2,5) >= -194
phi(0,3,0):  x(0,0) - x(3,0) + 197 y(0,3,0) >= 5
psy(0,3,0):  - x(0,0) + x(3,0) -197 y(0,3,0) >= -194
phi(0,3,1):  x(0,1) - x(3,1) + 197 y(0,3,1) >= 5
psy(0,3,1):  - x(0,1) + x(3,1) -197 y(0,3,1) >= -191
phi(0,3,2):  x(0,2) - x(3,2) + 197 y(0,3,2) >= 5
psy(0,3,2):  - x(0,2) + x(3,2) -197 y(0,3,2) >= -196
phi(0,3,3):  x(0,3) - x(3,3) + 197 y(0,3,3) >= 3
psy(0,3,3):  - x(0,3) + x(3,3) -197 y(0,3,3) >= -190
phi(0,3,4):  x(0,4) - x(3,4) + 197 y(0,3,4) >= 8
psy(0,3,4):  - x(0,4) + x(3,4) -197 y(0,3,4) >= -191
phi(0,3,5):  x(0,5) - x(3,5) + 197 y(0,3,5) >= 9
psy(0,3,5):  - x(0,5) + x(3,5) -197 y(0,3,5) >= -194
phi(0,4,0):  x(0,0) - x(4,0) + 197 y(0,4,0) >= 3
psy(0,4,0):  - x(0,0) + x(4,0) -197 y(0,4,0) >= -194
phi(0,4,1):  x(0,1) - x(4,1) + 197 y(0,4,1) >= 3
psy(0,4,1):  - x(0,1) + x(4,1) -197 y(0,4,1) >= -191
phi(0,4,2):  x(0,2) - x(4,2) + 197 y(0,4,2) >= 9
psy(0,4,2):  - x(0,2) + x(4,2) -197 y(0,4,2) >= -196
phi(0,4,3):  x(0,3) - x(4,3) + 197 y(0,4,3) >= 1
psy(0,4,3):  - x(0,3) + x(4,3) -197 y(0,4,3) >= -190
phi(0,4,4):  x(0,4) - x(4,4) + 197 y(0,4,4) >= 5
psy(0,4,4):  - x(0,4) + x(4,4) -197 y(0,4,4) >= -191
phi(0,4,5):  x(0,5) - x(4,5) + 197 y(0,4,5) >= 4
psy(0,4,5):  - x(0,5) + x(4,5) -197 y(0,4,5) >= -194
phi(0,5,0):  x(0,0) - x(5,0) + 197 y(0,5,0) >= 10
psy(0,5,0):  - x(0,0) + x(5,0) -197 y(0,5,0) >= -194
phi(0,5,1):  x(0,1) - x(5,1) + 197 y(0,5,1) >= 3
psy(0,5,1):  - x(0,1) + x(5,1) -197 y(0,5,1) >= -191
phi(0,5,2):  x(0,2) - x(5,2) + 197 y(0,5,2) >= 1
psy(0,5,2):  - x(0,2) + x(5,2) -197 y(0,5,2) >= -196
phi(0,5,3):  x(0,3) - x(5,3) + 197 y(0,5,3) >= 3
psy(0,5,3):  - x(0,3) + x(5,3) -197 y(0,5,3) >= -190
phi(0,5,4):  x(0,4) - x(5,4) + 197 y(0,5,4) >= 4
psy(0,5,4):  - x(0,4) + x(5,4) -197 y(0,5,4) >= -191
phi(0,5,5):  x(0,5) - x(5,5) + 197 y(0,5,5) >= 9
psy(0,5,5):  - x(0,5) + x(5,5) -197 y(0,5,5) >= -194
phi(1,0,0):  - x(0,0) + x(1,0) + 197 y(1,0,0) >= 3
psy(1,0,0):  x(0,0) - x(1,0) -197 y(1,0,0) >= -187
phi(1,0,1):  - x(0,1) + x(1,1) + 197 y(1,0,1) >= 6
psy(1,0,1):  x(0,1) - x(1,1) -197 y(1,0,1) >= -189
phi(1,0,2):  - x(0,2) + x(1,2) + 197 y(1,0,2) >= 1
psy(1,0,2):  x(0,2) - x(1,2) -197 y(1,0,2) >= -192
phi(1,0,3):  - x(0,3) + x(1,3) + 197 y(1,0,3) >= 7
psy(1,0,3):  x(0,3) - x(1,3) -197 y(1,0,3) >= -193
phi(1,0,4):  - x(0,4) + x(1,4) + 197 y(1,0,4) >= 6
psy(1,0,4):  x(0,4) - x(1,4) -197 y(1,0,4) >= -187
phi(1,0,5):  - x(0,5) + x(1,5) + 197 y(1,0,5) >= 3
psy(1,0,5):  x(0,5) - x(1,5) -197 y(1,0,5) >= -187
phi(1,2,0):  x(1,0) - x(2,0) + 197 y(1,2,0) >= 9
psy(1,2,0):  - x(1,0) + x(2,0) -197 y(1,2,0) >= -187
phi(1,2,1):  x(1,1) - x(2,1) + 197 y(1,2,1) >= 1
psy(1,2,1):  - x(1,1) + x(2,1) -197 y(1,2,1) >= -189
phi(1,2,2):  x(1,2) - x(2,2) + 197 y(1,2,2) >= 5
psy(1,2,2):  - x(1,2) + x(2,2) -197 y(1,2,2) >= -192
phi(1,2,3):  x(1,3) - x(2,3) + 197 y(1,2,3) >= 4
psy(1,2,3):  - x(1,3) + x(2,3) -197 y(1,2,3) >= -193
phi(1,2,4):  x(1,4) - x(2,4) + 197 y(1,2,4) >= 7
psy(1,2,4):  - x(1,4) + x(2,4) -197 y(1,2,4) >= -187
phi(1,2,5):  x(1,5) - x(2,5) + 197 y(1,2,5) >= 8
psy(1,2,5):  - x(1,5) + x(2,5) -197 y(1,2,5) >= -187
phi(1,3,0):  x(1,0) - x(3,0) + 197 y(1,3,0) >= 5
psy(1,3,0):  - x(1,0) + x(3,0) -197 y(1,3,0) >= -187
phi(1,3,1):  x(1,1) - x(3,1) + 197 y(1,3,1) >= 5
psy(1,3,1):  - x(1,1) + x(3,1) -197 y(1,3,1) >= -189
phi(1,3,2):  x(1,2) - x(3,2) + 197 y(1,3,2) >= 5
psy(1,3,2):  - x(1,2) + x(3,2) -197 y(1,3,2) >= -192
phi(1,3,3):  x(1,3) - x(3,3) + 197 y(1,3,3) >= 3
psy(1,3,3):  - x(1,3) + x(3,3) -197 y(1,3,3) >= -193
phi(1,3,4):  x(1,4) - x(3,4) + 197 y(1,3,4) >= 8
psy(1,3,4):  - x(1,4) + x(3,4) -197 y(1,3,4) >= -187
phi(1,3,5):  x(1,5) - x(3,5) + 197 y(1,3,5) >= 9
psy(1,3,5):  - x(1,5) + x(3,5) -197 y(1,3,5) >= -187
phi(1,4,0):  x(1,0) - x(4,0) + 197 y(1,4,0) >= 3
psy(1,4,0):  - x(1,0) + x(4,0) -197 y(1,4,0) >= -187
phi(1,4,1):  x(1,1) - x(4,1) + 197 y(1,4,1) >= 3
psy(1,4,1):  - x(1,1) + x(4,1) -197 y(1,4,1) >= -189
phi(1,4,2):  x(1,2) - x(4,2) + 197 y(1,4,2) >= 9
psy(1,4,2):  - x(1,2) + x(4,2) -197 y(1,4,2) >= -192
phi(1,4,3):  x(1,3) - x(4,3) + 197 y(1,4,3) >= 1
psy(1,4,3):  - x(1,3) + x(4,3) -197 y(1,4,3) >= -193
phi(1,4,4):  x(1,4) - x(4,4) + 197 y(1,4,4) >= 5
psy(1,4,4):  - x(1,4) + x(4,4) -197 y(1,4,4) >= -187
phi(1,4,5):  x(1,5) - x(4,5) + 197 y(1,4,5) >= 4
psy(1,4,5):  - x(1,5) + x(4,5) -197 y(1,4,5) >= -187
phi(1,5,0):  x(1,0) - x(5,0) + 197 y(1,5,0) >= 10
psy(1,5,0):  - x(1,0) + x(5,0) -197 y(1,5,0) >= -187
phi(1,5,1):  x(1,1) - x(5,1) + 197 y(1,5,1) >= 3
psy(1,5,1):  - x(1,1) + x(5,1) -197 y(1,5,1) >= -189
phi(1,5,2):  x(1,2) - x(5,2) + 197 y(1,5,2) >= 1
psy(1,5,2):  - x(1,2) + x(5,2) -197 y(1,5,2) >= -192
phi(1,5,3):  x(1,3) - x(5,3) + 197 y(1,5,3) >= 3
psy(1,5,3):  - x(1,3) + x(5,3) -197 y(1,5,3) >= -193
phi(1,5,4):  x(1,4) - x(5,4) + 197 y(1,5,4) >= 4
psy(1,5,4):  - x(1,4) + x(5,4) -197 y(1,5,4) >= -187
phi(1,5,5):  x(1,5) - x(5,5) + 197 y(1,5,5) >= 9
psy(1,5,5):  - x(1,5) + x(5,5) -197 y(1,5,5) >= -187
phi(2,0,0):  - x(0,0) + x(2,0) + 197 y(2,0,0) >= 3
psy(2,0,0):  x(0,0) - x(2,0) -197 y(2,0,0) >= -188
phi(2,0,1):  - x(0,1) + x(2,1) + 197 y(2,0,1) >= 6
psy(2,0,1):  x(0,1) - x(2,1) -197 y(2,0,1) >= -196
phi(2,0,2):  - x(0,2) + x(2,2) + 197 y(2,0,2) >= 1
psy(2,0,2):  x(0,2) - x(2,2) -197 y(2,0,2) >= -192
phi(2,0,3):  - x(0,3) + x(2,3) + 197 y(2,0,3) >= 7
psy(2,0,3):  x(0,3) - x(2,3) -197 y(2,0,3) >= -193
phi(2,0,4):  - x(0,4) + x(2,4) + 197 y(2,0,4) >= 6
psy(2,0,4):  x(0,4) - x(2,4) -197 y(2,0,4) >= -190
phi(2,0,5):  - x(0,5) + x(2,5) + 197 y(2,0,5) >= 3
psy(2,0,5):  x(0,5) - x(2,5) -197 y(2,0,5) >= -189
phi(2,1,0):  - x(1,0) + x(2,0) + 197 y(2,1,0) >= 10
psy(2,1,0):  x(1,0) - x(2,0) -197 y(2,1,0) >= -188
phi(2,1,1):  - x(1,1) + x(2,1) + 197 y(2,1,1) >= 8
psy(2,1,1):  x(1,1) - x(2,1) -197 y(2,1,1) >= -196
phi(2,1,2):  - x(1,2) + x(2,2) + 197 y(2,1,2) >= 5
psy(2,1,2):  x(1,2) - x(2,2) -197 y(2,1,2) >= -192
phi(2,1,3):  - x(1,3) + x(2,3) + 197 y(2,1,3) >= 4
psy(2,1,3):  x(1,3) - x(2,3) -197 y(2,1,3) >= -193
phi(2,1,4):  - x(1,4) + x(2,4) + 197 y(2,1,4) >= 10
psy(2,1,4):  x(1,4) - x(2,4) -197 y(2,1,4) >= -190
phi(2,1,5):  - x(1,5) + x(2,5) + 197 y(2,1,5) >= 10
psy(2,1,5):  x(1,5) - x(2,5) -197 y(2,1,5) >= -189
phi(2,3,0):  x(2,0) - x(3,0) + 197 y(2,3,0) >= 5
psy(2,3,0):  - x(2,0) + x(3,0) -197 y(2,3,0) >= -188
phi(2,3,1):  x(2,1) - x(3,1) + 197 y(2,3,1) >= 5
psy(2,3,1):  - x(2,1) + x(3,1) -197 y(2,3,1) >= -196
phi(2,3,2):  x(2,2) - x(3,2) + 197 y(2,3,2) >= 5
psy(2,3,2):  - x(2,2) + x(3,2) -197 y(2,3,2) >= -192
phi(2,3,3):  x(2,3) - x(3,3) + 197 y(2,3,3) >= 3
psy(2,3,3):  - x(2,3) + x(3,3) -197 y(2,3,3) >= -193
phi(2,3,4):  x(2,4) - x(3,4) + 197 y(2,3,4) >= 8
psy(2,3,4):  - x(2,4) + x(3,4) -197 y(2,3,4) >= -190
phi(2,3,5):  x(2,5) - x(3,5) + 197 y(2,3,5) >= 9
psy(2,3,5):  - x(2,5) + x(3,5) -197 y(2,3,5) >= -189
phi(2,4,0):  x(2,0) - x(4,0) + 197 y(2,4,0) >= 3
psy(2,4,0):  - x(2,0) + x(4,0) -197 y(2,4,0) >= -188
phi(2,4,1):  x(2,1) - x(4,1) + 197 y(2,4,1) >= 3
psy(2,4,1):  - x(2,1) + x(4,1) -197 y(2,4,1) >= -196
phi(2,4,2):  x(2,2) - x(4,2) + 197 y(2,4,2) >= 9
psy(2,4,2):  - x(2,2) + x(4,2) -197 y(2,4,2) >= -192
phi(2,4,3):  x(2,3) - x(4,3) + 197 y(2,4,3) >= 1
psy(2,4,3):  - x(2,3) + x(4,3) -197 y(2,4,3) >= -193
phi(2,4,4):  x(2,4) - x(4,4) + 197 y(2,4,4) >= 5
psy(2,4,4):  - x(2,4) + x(4,4) -197 y(2,4,4) >= -190
phi(2,4,5):  x(2,5) - x(4,5) + 197 y(2,4,5) >= 4
psy(2,4,5):  - x(2,5) + x(4,5) -197 y(2,4,5) >= -189
phi(2,5,0):  x(2,0) - x(5,0) + 197 y(2,5,0) >= 10
psy(2,5,0):  - x(2,0) + x(5,0) -197 y(2,5,0) >= -188
phi(2,5,1):  x(2,1) - x(5,1) + 197 y(2,5,1) >= 3
psy(2,5,1):  - x(2,1) + x(5,1) -197 y(2,5,1) >= -196
phi(2,5,2):  x(2,2) - x(5,2) + 197 y(2,5,2) >= 1
psy(2,5,2):  - x(2,2) + x(5,2) -197 y(2,5,2) >= -192
phi(2,5,3):  x(2,3) - x(5,3) + 197 y(2,5,3) >= 3
psy(2,5,3):  - x(2,3) + x(5,3) -197 y(2,5,3) >= -193
phi(2,5,4):  x(2,4) - x(5,4) + 197 y(2,5,4) >= 4
psy(2,5,4):  - x(2,4) + x(5,4) -197 y(2,5,4) >= -190
phi(2,5,5):  x(2,5) - x(5,5) + 197 y(2,5,5) >= 9
psy(2,5,5):  - x(2,5) + x(5,5) -197 y(2,5,5) >= -189
phi(3,0,0):  - x(0,0) + x(3,0) + 197 y(3,0,0) >= 3
psy(3,0,0):  x(0,0) - x(3,0) -197 y(3,0,0) >= -192
phi(3,0,1):  - x(0,1) + x(3,1) + 197 y(3,0,1) >= 6
psy(3,0,1):  x(0,1) - x(3,1) -197 y(3,0,1) >= -192
phi(3,0,2):  - x(0,2) + x(3,2) + 197 y(3,0,2) >= 1
psy(3,0,2):  x(0,2) - x(3,2) -197 y(3,0,2) >= -192
phi(3,0,3):  - x(0,3) + x(3,3) + 197 y(3,0,3) >= 7
psy(3,0,3):  x(0,3) - x(3,3) -197 y(3,0,3) >= -194
phi(3,0,4):  - x(0,4) + x(3,4) + 197 y(3,0,4) >= 6
psy(3,0,4):  x(0,4) - x(3,4) -197 y(3,0,4) >= -189
phi(3,0,5):  - x(0,5) + x(3,5) + 197 y(3,0,5) >= 3
psy(3,0,5):  x(0,5) - x(3,5) -197 y(3,0,5) >= -188
phi(3,1,0):  - x(1,0) + x(3,0) + 197 y(3,1,0) >= 10
psy(3,1,0):  x(1,0) - x(3,0) -197 y(3,1,0) >= -192
phi(3,1,1):  - x(1,1) + x(3,1) + 197 y(3,1,1) >= 8
psy(3,1,1):  x(1,1) - x(3,1) -197 y(3,1,1) >= -192
phi(3,1,2):  - x(1,2) + x(3,2) + 197 y(3,1,2) >= 5
psy(3,1,2):  x(1,2) - x(3,2) -197 y(3,1,2) >= -192
phi(3,1,3):  - x(1,3) + x(3,3) + 197 y(3,1,3) >= 4
psy(3,1,3):  x(1,3) - x(3,3) -197 y(3,1,3) >= -194
phi(3,1,4):  - x(1,4) + x(3,4) + 197 y(3,1,4) >= 10
psy(3,1,4):  x(1,4) - x(3,4) -197 y(3,1,4) >= -189
phi(3,1,5):  - x(1,5) + x(3,5) + 197 y(3,1,5) >= 10
psy(3,1,5):  x(1,5) - x(3,5) -197 y(3,1,5) >= -188
phi(3,2,0):  - x(2,0) + x(3,0) + 197 y(3,2,0) >= 9
psy(3,2,0):  x(2,0) - x(3,0) -197 y(3,2,0) >= -192
phi(3,2,1):  - x(2,1) + x(3,1) + 197 y(3,2,1) >= 1
psy(3,2,1):  x(2,1) - x(3,1) -197 y(3,2,1) >= -192
phi(3,2,2):  - x(2,2) + x(3,2) + 197 y(3,2,2) >= 5
psy(3,2,2):  x(2,2) - x(3,2) -197 y(3,2,2) >= -192
phi(3,2,3):  - x(2,3) + x(3,3) + 197 y(3,2,3) >= 4
psy(3,2,3):  x(2,3) - x(3,3) -197 y(3,2,3) >= -194
phi(3,2,4):  - x(2,4) + x(3,4) + 197 y(3,2,4) >= 7
psy(3,2,4):  x(2,4) - x(3,4) -197 y(3,2,4) >= -189
phi(3,2,5):  - x(2,5) + x(3,5) + 197 y(3,2,5) >= 8
psy(3,2,5):  x(2,5) - x(3,5) -197 y(3,2,5) >= -188
phi(3,4,0):  x(3,0) - x(4,0) + 197 y(3,4,0) >= 3
psy(3,4,0):  - x(3,0) + x(4,0) -197 y(3,4,0) >= -192
phi(3,4,1):  x(3,1) - x(4,1) + 197 y(3,4,1) >= 3
psy(3,4,1):  - x(3,1) + x(4,1) -197 y(3,4,1) >= -192
phi(3,4,2):  x(3,2) - x(4,2) + 197 y(3,4,2) >= 9
psy(3,4,2):  - x(3,2) + x(4,2) -197 y(3,4,2) >= -192
phi(3,4,3):  x(3,3) - x(4,3) + 197 y(3,4,3) >= 1
psy(3,4,3):  - x(3,3) + x(4,3) -197 y(3,4,3) >= -194
phi(3,4,4):  x(3,4) - x(4,4) + 197 y(3,4,4) >= 5
psy(3,4,4):  - x(3,4) + x(4,4) -197 y(3,4,4) >= -189
phi(3,4,5):  x(3,5) - x(4,5) + 197 y(3,4,5) >= 4
psy(3,4,5):  - x(3,5) + x(4,5) -197 y(3,4,5) >= -188
phi(3,5,0):  x(3,0) - x(5,0) + 197 y(3,5,0) >= 10
psy(3,5,0):  - x(3,0) + x(5,0) -197 y(3,5,0) >= -192
phi(3,5,1):  x(3,1) - x(5,1) + 197 y(3,5,1) >= 3
psy(3,5,1):  - x(3,1) + x(5,1) -197 y(3,5,1) >= -192
phi(3,5,2):  x(3,2) - x(5,2) + 197 y(3,5,2) >= 1
psy(3,5,2):  - x(3,2) + x(5,2) -197 y(3,5,2) >= -192
phi(3,5,3):  x(3,3) - x(5,3) + 197 y(3,5,3) >= 3
psy(3,5,3):  - x(3,3) + x(5,3) -197 y(3,5,3) >= -194
phi(3,5,4):  x(3,4) - x(5,4) + 197 y(3,5,4) >= 4
psy(3,5,4):  - x(3,4) + x(5,4) -197 y(3,5,4) >= -189
phi(3,5,5):  x(3,5) - x(5,5) + 197 y(3,5,5) >= 9
psy(3,5,5):  - x(3,5) + x(5,5) -197 y(3,5,5) >= -188
phi(4,0,0):  - x(0,0) + x(4,0) + 197 y(4,0,0) >= 3
psy(4,0,0):  x(0,0) - x(4,0) -197 y(4,0,0) >= -194
phi(4,0,1):  - x(0,1) + x(4,1) + 197 y(4,0,1) >= 6
psy(4,0,1):  x(0,1) - x(4,1) -197 y(4,0,1) >= -194
phi(4,0,2):  - x(0,2) + x(4,2) + 197 y(4,0,2) >= 1
psy(4,0,2):  x(0,2) - x(4,2) -197 y(4,0,2) >= -188
phi(4,0,3):  - x(0,3) + x(4,3) + 197 y(4,0,3) >= 7
psy(4,0,3):  x(0,3) - x(4,3) -197 y(4,0,3) >= -196
phi(4,0,4):  - x(0,4) + x(4,4) + 197 y(4,0,4) >= 6
psy(4,0,4):  x(0,4) - x(4,4) -197 y(4,0,4) >= -192
phi(4,0,5):  - x(0,5) + x(4,5) + 197 y(4,0,5) >= 3
psy(4,0,5):  x(0,5) - x(4,5) -197 y(4,0,5) >= -193
phi(4,1,0):  - x(1,0) + x(4,0) + 197 y(4,1,0) >= 10
psy(4,1,0):  x(1,0) - x(4,0) -197 y(4,1,0) >= -194
phi(4,1,1):  - x(1,1) + x(4,1) + 197 y(4,1,1) >= 8
psy(4,1,1):  x(1,1) - x(4,1) -197 y(4,1,1) >= -194
phi(4,1,2):  - x(1,2) + x(4,2) + 197 y(4,1,2) >= 5
psy(4,1,2):  x(1,2) - x(4,2) -197 y(4,1,2) >= -188
phi(4,1,3):  - x(1,3) + x(4,3) + 197 y(4,1,3) >= 4
psy(4,1,3):  x(1,3) - x(4,3) -197 y(4,1,3) >= -196
phi(4,1,4):  - x(1,4) + x(4,4) + 197 y(4,1,4) >= 10
psy(4,1,4):  x(1,4) - x(4,4) -197 y(4,1,4) >= -192
phi(4,1,5):  - x(1,5) + x(4,5) + 197 y(4,1,5) >= 10
psy(4,1,5):  x(1,5) - x(4,5) -197 y(4,1,5) >= -193
phi(4,2,0):  - x(2,0) + x(4,0) + 197 y(4,2,0) >= 9
psy(4,2,0):  x(2,0) - x(4,0) -197 y(4,2,0) >= -194
phi(4,2,1):  - x(2,1) + x(4,1) + 197 y(4,2,1) >= 1
psy(4,2,1):  x(2,1) - x(4,1) -197 y(4,2,1) >= -194
phi(4,2,2):  - x(2,2) + x(4,2) + 197 y(4,2,2) >= 5
psy(4,2,2):  x(2,2) - x(4,2) -197 y(4,2,2) >= -188
phi(4,2,3):  - x(2,3) + x(4,3) + 197 y(4,2,3) >= 4
psy(4,2,3):  x(2,3) - x(4,3) -197 y(4,2,3) >= -196
phi(4,2,4):  - x(2,4) + x(4,4) + 197 y(4,2,4) >= 7
psy(4,2,4):  x(2,4) - x(4,4) -197 y(4,2,4) >= -192
phi(4,2,5):  - x(2,5) + x(4,5) + 197 y(4,2,5) >= 8
psy(4,2,5):  x(2,5) - x(4,5) -197 y(4,2,5) >= -193
phi(4,3,0):  - x(3,0) + x(4,0) + 197 y(4,3,0) >= 5
psy(4,3,0):  x(3,0) - x(4,0) -197 y(4,3,0) >= -194
phi(4,3,1):  - x(3,1) + x(4,1) + 197 y(4,3,1) >= 5
psy(4,3,1):  x(3,1) - x(4,1) -197 y(4,3,1) >= -194
phi(4,3,2):  - x(3,2) + x(4,2) + 197 y(4,3,2) >= 5
psy(4,3,2):  x(3,2) - x(4,2) -197 y(4,3,2) >= -188
phi(4,3,3):  - x(3,3) + x(4,3) + 197 y(4,3,3) >= 3
psy(4,3,3):  x(3,3) - x(4,3) -197 y(4,3,3) >= -196
phi(4,3,4):  - x(3,4) + x(4,4) + 197 y(4,3,4) >= 8
psy(4,3,4):  x(3,4) - x(4,4) -197 y(4,3,4) >= -192
phi(4,3,5):  - x(3,5) + x(4,5) + 197 y(4,3,5) >= 9
psy(4,3,5):  x(3,5) - x(4,5) -197 y(4,3,5) >= -193
phi(4,5,0):  x(4,0) - x(5,0) + 197 y(4,5,0) >= 10
psy(4,5,0):  - x(4,0) + x(5,0) -197 y(4,5,0) >= -194
phi(4,5,1):  x(4,1) - x(5,1) + 197 y(4,5,1) >= 3
psy(4,5,1):  - x(4,1) + x(5,1) -197 y(4,5,1) >= -194
phi(4,5,2):  x(4,2) - x(5,2) + 197 y(4,5,2) >= 1
psy(4,5,2):  - x(4,2) + x(5,2) -197 y(4,5,2) >= -188
phi(4,5,3):  x(4,3) - x(5,3) + 197 y(4,5,3) >= 3
psy(4,5,3):  - x(4,3) + x(5,3) -197 y(4,5,3) >= -196
phi(4,5,4):  x(4,4) - x(5,4) + 197 y(4,5,4) >= 4
psy(4,5,4):  - x(4,4) + x(5,4) -197 y(4,5,4) >= -192
phi(4,5,5):  x(4,5) - x(5,5) + 197 y(4,5,5) >= 9
psy(4,5,5):  - x(4,5) + x(5,5) -197 y(4,5,5) >= -193
phi(5,0,0):  - x(0,0) + x(5,0) + 197 y(5,0,0) >= 3
psy(5,0,0):  x(0,0) - x(5,0) -197 y(5,0,0) >= -187
phi(5,0,1):  - x(0,1) + x(5,1) + 197 y(5,0,1) >= 6
psy(5,0,1):  x(0,1) - x(5,1) -197 y(5,0,1) >= -194
phi(5,0,2):  - x(0,2) + x(5,2) + 197 y(5,0,2) >= 1
psy(5,0,2):  x(0,2) - x(5,2) -197 y(5,0,2) >= -196
phi(5,0,3):  - x(0,3) + x(5,3) + 197 y(5,0,3) >= 7
psy(5,0,3):  x(0,3) - x(5,3) -197 y(5,0,3) >= -194
phi(5,0,4):  - x(0,4) + x(5,4) + 197 y(5,0,4) >= 6
psy(5,0,4):  x(0,4) - x(5,4) -197 y(5,0,4) >= -193
phi(5,0,5):  - x(0,5) + x(5,5) + 197 y(5,0,5) >= 3
psy(5,0,5):  x(0,5) - x(5,5) -197 y(5,0,5) >= -188
phi(5,1,0):  - x(1,0) + x(5,0) + 197 y(5,1,0) >= 10
psy(5,1,0):  x(1,0) - x(5,0) -197 y(5,1,0) >= -187
phi(5,1,1):  - x(1,1) + x(5,1) + 197 y(5,1,1) >= 8
psy(5,1,1):  x(1,1) - x(5,1) -197 y(5,1,1) >= -194
phi(5,1,2):  - x(1,2) + x(5,2) + 197 y(5,1,2) >= 5
psy(5,1,2):  x(1,2) - x(5,2) -197 y(5,1,2) >= -196
phi(5,1,3):  - x(1,3) + x(5,3) + 197 y(5,1,3) >= 4
psy(5,1,3):  x(1,3) - x(5,3) -197 y(5,1,3) >= -194
phi(5,1,4):  - x(1,4) + x(5,4) + 197 y(5,1,4) >= 10
psy(5,1,4):  x(1,4) - x(5,4) -197 y(5,1,4) >= -193
phi(5,1,5):  - x(1,5) + x(5,5) + 197 y(5,1,5) >= 10
psy(5,1,5):  x(1,5) - x(5,5) -197 y(5,1,5) >= -188
phi(5,2,0):  - x(2,0) + x(5,0) + 197 y(5,2,0) >= 9
psy(5,2,0):  x(2,0) - x(5,0) -197 y(5,2,0) >= -187
phi(5,2,1):  - x(2,1) + x(5,1) + 197 y(5,2,1) >= 1
psy(5,2,1):  x(2,1) - x(5,1) -197 y(5,2,1) >= -194
phi(5,2,2):  - x(2,2) + x(5,2) + 197 y(5,2,2) >= 5
psy(5,2,2):  x(2,2) - x(5,2) -197 y(5,2,2) >= -196
phi(5,2,3):  - x(2,3) + x(5,3) + 197 y(5,2,3) >= 4
psy(5,2,3):  x(2,3) - x(5,3) -197 y(5,2,3) >= -194
phi(5,2,4):  - x(2,4) + x(5,4) + 197 y(5,2,4) >= 7
psy(5,2,4):  x(2,4) - x(5,4) -197 y(5,2,4) >= -193
phi(5,2,5):  - x(2,5) + x(5,5) + 197 y(5,2,5) >= 8
psy(5,2,5):  x(2,5) - x(5,5) -197 y(5,2,5) >= -188
phi(5,3,0):  - x(3,0) + x(5,0) + 197 y(5,3,0) >= 5
psy(5,3,0):  x(3,0) - x(5,0) -197 y(5,3,0) >= -187
phi(5,3,1):  - x(3,1) + x(5,1) + 197 y(5,3,1) >= 5
psy(5,3,1):  x(3,1) - x(5,1) -197 y(5,3,1) >= -194
phi(5,3,2):  - x(3,2) + x(5,2) + 197 y(5,3,2) >= 5
psy(5,3,2):  x(3,2) - x(5,2) -197 y(5,3,2) >= -196
phi(5,3,3):  - x(3,3) + x(5,3) + 197 y(5,3,3) >= 3
psy(5,3,3):  x(3,3) - x(5,3) -197 y(5,3,3) >= -194
phi(5,3,4):  - x(3,4) + x(5,4) + 197 y(5,3,4) >= 8
psy(5,3,4):  x(3,4) - x(5,4) -197 y(5,3,4) >= -193
phi(5,3,5):  - x(3,5) + x(5,5) + 197 y(5,3,5) >= 9
psy(5,3,5):  x(3,5) - x(5,5) -197 y(5,3,5) >= -188
phi(5,4,0):  - x(4,0) + x(5,0) + 197 y(5,4,0) >= 3
psy(5,4,0):  x(4,0) - x(5,0) -197 y(5,4,0) >= -187
phi(5,4,1):  - x(4,1) + x(5,1) + 197 y(5,4,1) >= 3
psy(5,4,1):  x(4,1) - x(5,1) -197 y(5,4,1) >= -194
phi(5,4,2):  - x(4,2) + x(5,2) + 197 y(5,4,2) >= 9
psy(5,4,2):  x(4,2) - x(5,2) -197 y(5,4,2) >= -196
phi(5,4,3):  - x(4,3) + x(5,3) + 197 y(5,4,3) >= 1
psy(5,4,3):  x(4,3) - x(5,3) -197 y(5,4,3) >= -194
phi(5,4,4):  - x(4,4) + x(5,4) + 197 y(5,4,4) >= 5
psy(5,4,4):  x(4,4) - x(5,4) -197 y(5,4,4) >= -193
phi(5,4,5):  - x(4,5) + x(5,5) + 197 y(5,4,5) >= 4
psy(5,4,5):  x(4,5) - x(5,5) -197 y(5,4,5) >= -188
makespan(0):  C - x(0,4) >= 6
makespan(1):  C - x(1,3) >= 4
makespan(2):  C - x(2,4) >= 7
makespan(3):  C - x(3,5) >= 9
makespan(4):  C - x(4,3) >= 1
makespan(5):  C - x(5,2) >= 1
Bounds
 0 <= y(0,0,0) <= 1
 0 <= y(0,0,1) <= 1
 0 <= y(0,0,2) <= 1
 0 <= y(0,0,3) <= 1
 0 <= y(0,0,4) <= 1
 0 <= y(0,0,5) <= 1
 0 <= y(0,1,0) <= 1
 0 <= y(0,1,1) <= 1
 0 <= y(0,1,2) <= 1
 0 <= y(0,1,3) <= 1
 0 <= y(0,1,4) <= 1
 0 <= y(0,1,5) <= 1
 0 <= y(0,2,0) <= 1
 0 <= y(0,2,1) <= 1
 0 <= y(0,2,2) <= 1
 0 <= y(0,2,3) <= 1
 0 <= y(0,2,4) <= 1
 0 <= y(0,2,5) <= 1
 0 <= y(0,3,0) <= 1
 0 <= y(0,3,1) <= 1
 0 <= y(0,3,2) <= 1
 0 <= y(0,3,3) <= 1
 0 <= y(0,3,4) <= 1
 0 <= y(0,3,5) <= 1
 0 <= y(0,4,0) <= 1
 0 <= y(0,4,1) <= 1
 0 <= y(0,4,2) <= 1
 0 <= y(0,4,3) <= 1
 0 <= y(0,4,4) <= 1
 0 <= y(0,4,5) <= 1
 0 <= y(0,5,0) <= 1
 0 <= y(0,5,1) <= 1
 0 <= y(0,5,2) <= 1
 0 <= y(0,5,3) <= 1
 0 <= y(0,5,4) <= 1
 0 <= y(0,5,5) <= 1
 0 <= y(1,0,0) <= 1
 0 <= y(1,0,1) <= 1
 0 <= y(1,0,2) <= 1
 0 <= y(1,0,3) <= 1
 0 <= y(1,0,4) <= 1
 0 <= y(1,0,5) <= 1
 0 <= y(1,1,0) <= 1
 0 <= y(1,1,1) <= 1
 0 <= y(1,1,2) <= 1
 0 <= y(1,1,3) <= 1
 0 <= y(1,1,4) <= 1
 0 <= y(1,1,5) <= 1
 0 <= y(1,2,0) <= 1
 0 <= y(1,2,1) <= 1
 0 <= y(1,2,2) <= 1
 0 <= y(1,2,3) <= 1
 0 <= y(1,2,4) <= 1
 0 <= y(1,2,5) <= 1
 0 <= y(1,3,0) <= 1
 0 <= y(1,3,1) <= 1
 0 <= y(1,3,2) <= 1
 0 <= y(1,3,3) <= 1
 0 <= y(1,3,4) <= 1
 0 <= y(1,3,5) <= 1
 0 <= y(1,4,0) <= 1
 0 <= y(1,4,1) <= 1
 0 <= y(1,4,2) <= 1
 0 <= y(1,4,3) <= 1
 0 <= y(1,4,4) <= 1
 0 <= y(1,4,5) <= 1
 0 <= y(1,5,0) <= 1
 0 <= y(1,5,1) <= 1
 0 <= y(1,5,2) <= 1
 0 <= y(1,5,3) <= 1
 0 <= y(1,5,4) <= 1
 0 <= y(1,5,5) <= 1
 0 <= y(2,0,0) <= 1
 0 <= y(2,0,1) <= 1
 0 <= y(2,0,2) <= 1
 0 <= y(2,0,3) <= 1
 0 <= y(2,0,4) <= 1
 0 <= y(2,0,5) <= 1
 0 <= y(2,1,0) <= 1
 0 <= y(2,1,1) <= 1
 0 <= y(2,1,2) <= 1
 0 <= y(2,1,3) <= 1
 0 <= y(2,1,4) <= 1
 0 <= y(2,1,5) <= 1
 0 <= y(2,2,0) <= 1
 0 <= y(2,2,1) <= 1
 0 <= y(2,2,2) <= 1
 0 <= y(2,2,3) <= 1
 0 <= y(2,2,4) <= 1
 0 <= y(2,2,5) <= 1
 0 <= y(2,3,0) <= 1
 0 <= y(2,3,1) <= 1
 0 <= y(2,3,2) <= 1
 0 <= y(2,3,3) <= 1
 0 <= y(2,3,4) <= 1
 0 <= y(2,3,5) <= 1
 0 <= y(2,4,0) <= 1
 0 <= y(2,4,1) <= 1
 0 <= y(2,4,2) <= 1
 0 <= y(2,4,3) <= 1
 0 <= y(2,4,4) <= 1
 0 <= y(2,4,5) <= 1
 0 <= y(2,5,0) <= 1
 0 <= y(2,5,1) <= 1
 0 <= y(2,5,2) <= 1
 0 <= y(2,5,3) <= 1
 0 <= y(2,5,4) <= 1
 0 <= y(2,5,5) <= 1
 0 <= y(3,0,0) <= 1
 0 <= y(3,0,1) <= 1
 0 <= y(3,0,2) <= 1
 0 <= y(3,0,3) <= 1
 0 <= y(3,0,4) <= 1
 0 <= y(3,0,5) <= 1
 0 <= y(3,1,0) <= 1
 0 <= y(3,1,1) <= 1
 0 <= y(3,1,2) <= 1
 0 <= y(3,1,3) <= 1
 0 <= y(3,1,4) <= 1
 0 <= y(3,1,5) <= 1
 0 <= y(3,2,0) <= 1
 0 <= y(3,2,1) <= 1
 0 <= y(3,2,2) <= 1
 0 <= y(3,2,3) <= 1
 0 <= y(3,2,4) <= 1
 0 <= y(3,2,5) <= 1
 0 <= y(3,3,0) <= 1
 0 <= y(3,3,1) <= 1
 0 <= y(3,3,2) <= 1
 0 <= y(3,3,3) <= 1
 0 <= y(3,3,4) <= 1
 0 <= y(3,3,5) <= 1
 0 <= y(3,4,0) <= 1
 0 <= y(3,4,1) <= 1
 0 <= y(3,4,2) <= 1
 0 <= y(3,4,3) <= 1
 0 <= y(3,4,4) <= 1
 0 <= y(3,4,5) <= 1
 0 <= y(3,5,0) <= 1
 0 <= y(3,5,1) <= 1
 0 <= y(3,5,2) <= 1
 0 <= y(3,5,3) <= 1
 0 <= y(3,5,4) <= 1
 0 <= y(3,5,5) <= 1
 0 <= y(4,0,0) <= 1
 0 <= y(4,0,1) <= 1
 0 <= y(4,0,2) <= 1
 0 <= y(4,0,3) <= 1
 0 <= y(4,0,4) <= 1
 0 <= y(4,0,5) <= 1
 0 <= y(4,1,0) <= 1
 0 <= y(4,1,1) <= 1
 0 <= y(4,1,2) <= 1
 0 <= y(4,1,3) <= 1
 0 <= y(4,1,4) <= 1
 0 <= y(4,1,5) <= 1
 0 <= y(4,2,0) <= 1
 0 <= y(4,2,1) <= 1
 0 <= y(4,2,2) <= 1
 0 <= y(4,2,3) <= 1
 0 <= y(4,2,4) <= 1
 0 <= y(4,2,5) <= 1
 0 <= y(4,3,0) <= 1
 0 <= y(4,3,1) <= 1
 0 <= y(4,3,2) <= 1
 0 <= y(4,3,3) <= 1
 0 <= y(4,3,4) <= 1
 0 <= y(4,3,5) <= 1
 0 <= y(4,4,0) <= 1
 0 <= y(4,4,1) <= 1
 0 <= y(4,4,2) <= 1
 0 <= y(4,4,3) <= 1
 0 <= y(4,4,4) <= 1
 0 <= y(4,4,5) <= 1
 0 <= y(4,5,0) <= 1
 0 <= y(4,5,1) <= 1
 0 <= y(4,5,2) <= 1
 0 <= y(4,5,3) <= 1
 0 <= y(4,5,4) <= 1
 0 <= y(4,5,5) <= 1
 0 <= y(5,0,0) <= 1
 0 <= y(5,0,1) <= 1
 0 <= y(5,0,2) <= 1
 0 <= y(5,0,3) <= 1
 0 <= y(5,0,4) <= 1
 0 <= y(5,0,5) <= 1
 0 <= y(5,1,0) <= 1
 0 <= y(5,1,1) <= 1
 0 <= y(5,1,2) <= 1
 0 <= y(5,1,3) <= 1
 0 <= y(5,1,4) <= 1
 0 <= y(5,1,5) <= 1
 0 <= y(5,2,0) <= 1
 0 <= y(5,2,1) <= 1
 0 <= y(5,2,2) <= 1
 0 <= y(5,2,3) <= 1
 0 <= y(5,2,4) <= 1
 0 <= y(5,2,5) <= 1
 0 <= y(5,3,0) <= 1
 0 <= y(5,3,1) <= 1
 0 <= y(5,3,2) <= 1
 0 <= y(5,3,3) <= 1
 0 <= y(5,3,4) <= 1
 0 <= y(5,3,5) <= 1
 0 <= y(5,4,0) <= 1
 0 <= y(5,4,1) <= 1
 0 <= y(5,4,2) <= 1
 0 <= y(5,4,3) <= 1
 0 <= y(5,4,4) <= 1
 0 <= y(5,4,5) <= 1
 0 <= y(5,5,0) <= 1
 0 <= y(5,5,1) <= 1
 0 <= y(5,5,2) <= 1
 0 <= y(5,5,3) <= 1
 0 <= y(5,5,4) <= 1
 0 <= y(5,5,5) <= 1
Integers
C x(0,0) x(0,1) x(0,2) x(0,3) x(0,4) x(0,5) x(1,0) x(1,1) x(1,2) 
x(1,3) x(1,4) x(1,5) x(2,0) x(2,1) x(2,2) x(2,3) x(2,4) x(2,5) x(3,0) 
x(3,1) x(3,2) x(3,3) x(3,4) x(3,5) x(4,0) x(4,1) x(4,2) x(4,3) x(4,4) 
x(4,5) x(5,0) x(5,1) x(5,2) x(5,3) x(5,4) x(5,5) y(0,0,0) y(0,0,1) y(0,0,2) 
y(0,0,3) y(0,0,4) y(0,0,5) y(0,1,0) y(0,1,1) y(0,1,2) y(0,1,3) y(0,1,4) y(0,1,5) y(0,2,0) 
y(0,2,1) y(0,2,2) y(0,2,3) y(0,2,4) y(0,2,5) y(0,3,0) y(0,3,1) y(0,3,2) y(0,3,3) y(0,3,4) 
y(0,3,5) y(0,4,0) y(0,4,1) y(0,4,2) y(0,4,3) y(0,4,4) y(0,4,5) y(0,5,0) y(0,5,1) y(0,5,2) 
y(0,5,3) y(0,5,4) y(0,5,5) y(1,0,0) y(1,0,1) y(1,0,2) y(1,0,3) y(1,0,4) y(1,0,5) y(1,1,0) 
y(1,1,1) y(1,1,2) y(1,1,3) y(1,1,4) y(1,1,5) y(1,2,0) y(1,2,1) y(1,2,2) y(1,2,3) y(1,2,4) 
y(1,2,5) y(1,3,0) y(1,3,1) y(1,3,2) y(1,3,3) y(1,3,4) y(1,3,5) y(1,4,0) y(1,4,1) y(1,4,2) 
y(1,4,3) y(1,4,4) y(1,4,5) y(1,5,0) y(1,5,1) y(1,5,2) y(1,5,3) y(1,5,4) y(1,5,5) y(2,0,0) 
y(2,0,1) y(2,0,2) y(2,0,3) y(2,0,4) y(2,0,5) y(2,1,0) y(2,1,1) y(2,1,2) y(2,1,3) y(2,1,4) 
y(2,1,5) y(2,2,0) y(2,2,1) y(2,2,2) y(2,2,3) y(2,2,4) y(2,2,5) y(2,3,0) y(2,3,1) y(2,3,2) 
y(2,3,3) y(2,3,4) y(2,3,5) y(2,4,0) y(2,4,1) y(2,4,2) y(2,4,3) y(2,4,4) y(2,4,5) y(2,5,0) 
y(2,5,1) y(2,5,2) y(2,5,3) y(2,5,4) y(2,5,5) y(3,0,0) y(3,0,1) y(3,0,2) y(3,0,3) y(3,0,4) 
y(3,0,5) y(3,1,0) y(3,1,1) y(3,1,2) y(3,1,3) y(3,1,4) y(3,1,5) y(3,2,0) y(3,2,1) y(3,2,2) 
y(3,2,3) y(3,2,4) y(3,2,5) y(3,3,0) y(3,3,1) y(3,3,2) y(3,3,3) y(3,3,4) y(3,3,5) y(3,4,0) 
y(3,4,1) y(3,4,2) y(3,4,3) y(3,4,4) y(3,4,5) y(3,5,0) y(3,5,1) y(3,5,2) y(3,5,3) y(3,5,4) 
y(3,5,5) y(4,0,0) y(4,0,1) y(4,0,2) y(4,0,3) y(4,0,4) y(4,0,5) y(4,1,0) y(4,1,1) y(4,1,2) 
y(4,1,3) y(4,1,4) y(4,1,5) y(4,2,0) y(4,2,1) y(4,2,2) y(4,2,3) y(4,2,4) y(4,2,5) y(4,3,0) 
y(4,3,1) y(4,3,2) y(4,3,3) y(4,3,4) y(4,3,5) y(4,4,0) y(4,4,1) y(4,4,2) y(4,4,3) y(4,4,4) 
y(4,4,5) y(4,5,0) y(4,5,1) y(4,5,2) y(4,5,3) y(4,5,4) y(4,5,5) y(5,0,0) y(5,0,1) y(5,0,2) 
y(5,0,3) y(5,0,4) y(5,0,5) y(5,1,0) y(5,1,1) y(5,1,2) y(5,1,3) y(5,1,4) y(5,1,5) y(5,2,0) 
y(5,2,1) y(5,2,2) y(5,2,3) y(5,2,4) y(5,2,5) y(5,3,0) y(5,3,1) y(5,3,2) y(5,3,3) y(5,3,4) 
y(5,3,5) y(5,4,0) y(5,4,1) y(5,4,2) y(5,4,3) y(5,4,4) y(5,4,5) y(5,5,0) y(5,5,1) y(5,5,2) 
y(5,5,3) y(5,5,4) y(5,5,5) 
End
